16 16
10
3 3 3 5
3 4 0 0
3 5 3 0
3 6 6 10
3 7 9 9
3 8 3 8
3 10 6 0
3 12 0 4
4 7 12 9
7 9 9 0
% time elapsed: 0.14 s
% time elapsed: 0.14 s
%%%mzn-stat: initTime=0.000297
%%%mzn-stat: solveTime=0.039233
%%%mzn-stat: solutions=30
%%%mzn-stat: variables=21
%%%mzn-stat: propagators=15
%%%mzn-stat: propagations=63854
%%%mzn-stat: nodes=11930
%%%mzn-stat: failures=5638
%%%mzn-stat: restarts=39
%%%mzn-stat: peakDepth=33
%%%mzn-stat-end
